Starting to solve
c stats 0;117;0.114412;-1;222991;978757;-1;-1;-1;-1;-1;-1;-1;-1;
v 
Violated Soft Clauses (violated/total): (26/37) ----------- Total cost: 90
s SATISFIABLE

Starting to solve
c stats 0;222;1.35862;-1;1776829;6113127;-1;-1;-1;-1;-1;-1;-1;-1;
v 
Violated Soft Clauses (violated/total): (73/82) ----------- Total cost: 203
s SATISFIABLE

Starting to solve
c stats 0;248;1.92829;-1;2187085;8853332;-1;-1;-1;-1;-1;-1;-1;-1;
v 
Violated Soft Clauses (violated/total): (77/88) ----------- Total cost: 237
s SATISFIABLE

Starting to solve
c stats 0;357;867.725;-1;7112715;24622271;-1;-1;-1;-1;-1;-1;-1;-1;
v 
Violated Soft Clauses (violated/total): (142/151) ----------- Total cost: 282
s SATISFIABLE

Starting to solve
c stats 0;480;8.05944;-1;6385494;24752226;-1;-1;-1;-1;-1;-1;-1;-1;
v 
Violated Soft Clauses (violated/total): (148/170) ----------- Total cost: 390
s SATISFIABLE

Starting to solve
c stats 0;482;8.27786;-1;8702195;30815832;-1;-1;-1;-1;-1;-1;-1;-1;
v
Violated Soft Clauses (violated/total): (154/182) ----------- Total cost: 430
s SATISFIABLE
========================================================================================================================================================================================
                                                                Sorter + log
========================================================================================================================================================================================
Starting to solve
c stats 0;117;0.126451;-1;223541;979207;-1;-1;-1;-1;-1;-1;-1;-1;
v 
Violated Soft Clauses (violated/total): (31/37) ----------- Total cost: 103
s SATISFIABLE

Starting to solve
c stats 0;222;1.88913;-1;1778254;6112852;-1;-1;-1;-1;-1;-1;-1;-1;
v 
Violated Soft Clauses (violated/total): (73/82) ----------- Total cost: 197
s SATISFIABLE

Starting to solve
c stats 0;248;4.51101;-1;2188735;8853907;-1;-1;-1;-1;-1;-1;-1;-1;
v
Violated Soft Clauses (violated/total): (142/151) ----------- Total cost: 282
s SATISFIABLE

Starting to solve
c stats 0;480;7.14801;-1;6388094;24751551;-1;-1;-1;-1;-1;-1;-1;-1;
v 
Violated Soft Clauses (violated/total): (131/170) ----------- Total cost: 359
s SATISFIABLE

Starting to solve
c stats 0;482;7.26449;-1;8705420;30815832;-1;-1;-1;-1;-1;-1;-1;-1;
v
Violated Soft Clauses (violated/total): (147/182) ----------- Total cost: 415
s SATISFIABLE
========================================================================================================================================================================================
                                                                Sorter + ladder
========================================================================================================================================================================================
Starting to solve
c stats 0;117;0.328644;-1;223766;978782;-1;-1;-1;-1;-1;-1;-1;-1;
s SATISFIABLE
Starting to solve
c stats 0;222;2.39031;-1;1779479;6109927;-1;-1;-1;-1;-1;-1;-1;-1;
s SATISFIABLE
Starting to solve
c stats 0;248;5.87049;-1;2189935;8851132;-1;-1;-1;-1;-1;-1;-1;-1;
s SATISFIABLE
Starting to solve
c stats 0;357;535.884;-1;7118190;24613496;-1;-1;-1;-1;-1;-1;-1;-1;
s SATISFIABLE
Starting to solve
c stats 0;480;39.8701;-1;6390344;24746251;-1;-1;-1;-1;-1;-1;-1;-1;
s SATISFIABLE
Starting to solve
c stats 0;482;16.7019;-1;8708095;30808457;-1;-1;-1;-1;-1;-1;-1;-1;
s SATISFIABLE
========================================================================================================================================================================================
                                                                Sorter + heule
========================================================================================================================================================================================
Starting to solve
c stats 0;117;0.124358;-1;223441;978457;-1;-1;-1;-1;-1;-1;-1;-1;
s SATISFIABLE
Starting to solve
c stats 0;222;2.1604;-1;1779329;6109777;-1;-1;-1;-1;-1;-1;-1;-1;
s SATISFIABLE
Starting to solve
c stats 0;248;2.1773;-1;2189585;8850782;-1;-1;-1;-1;-1;-1;-1;-1;
s SATISFIABLE
Starting to solve
TIMEOUT
Starting to solve
c stats 0;480;11.9633;-1;6389844;24745751;-1;-1;-1;-1;-1;-1;-1;-1;
s SATISFIABLE
Starting to solve
c stats 0;482;77.5419;-1;8707720;30808082;-1;-1;-1;-1;-1;-1;-1;-1;
s SATISFIABLE
========================================================================================================================================================================================
                                                                Totalizer + quad
========================================================================================================================================================================================
Starting to solve
c stats 0;117;0.107598;-1;220114;969534;-1;-1;-1;-1;-1;-1;-1;-1;
s SATISFIABLE
Starting to solve
c stats 0;222;1.06503;-1;1769961;6090809;-1;-1;-1;-1;-1;-1;-1;-1;
s SATISFIABLE
Starting to solve
c stats 0;248;4.3955;-1;2179450;8828541;-1;-1;-1;-1;-1;-1;-1;-1;
s SATISFIABLE
Starting to solve
c stats 0;357;546.695;-1;7099821;24580215;-1;-1;-1;-1;-1;-1;-1;-1;
s SATISFIABLE
Starting to solve
c stats 0;480;8.54525;-1;6372080;24709009;-1;-1;-1;-1;-1;-1;-1;-1;
s SATISFIABLE
Starting to solve
c stats 0;482;7.87854;-1;8687131;30766834;-1;-1;-1;-1;-1;-1;-1;-1;
s SATISFIABLE
========================================================================================================================================================================================
                                                                Totalizer + log
========================================================================================================================================================================================
Starting to solve
c stats 0;117;0.135316;-1;220664;969984;-1;-1;-1;-1;-1;-1;-1;-1;
s SATISFIABLE
Starting to solve
c stats 0;222;1.45143;-1;1771386;6090534;-1;-1;-1;-1;-1;-1;-1;-1;
s SATISFIABLE
Starting to solve
c stats 0;248;3.00897;-1;2181100;8829116;-1;-1;-1;-1;-1;-1;-1;-1;
s SATISFIABLE
Starting to solve
c stats 0;357;728.434;-1;7102496;24578115;-1;-1;-1;-1;-1;-1;-1;-1;
s SATISFIABLE
Starting to solve
c stats 0;480;7.92463;-1;6374680;24708334;-1;-1;-1;-1;-1;-1;-1;-1;
s SATISFIABLE
Starting to solve
c stats 0;482;6.58029;-1;8690356;30766834;-1;-1;-1;-1;-1;-1;-1;-1;
s SATISFIABLE
========================================================================================================================================================================================
                                                                Totalizer + ladder
========================================================================================================================================================================================
Starting to solve
c stats 0;117;0.235926;-1;220889;969559;-1;-1;-1;-1;-1;-1;-1;-1;
s SATISFIABLE
Starting to solve
c stats 0;222;1.00106;-1;1772611;6087609;-1;-1;-1;-1;-1;-1;-1;-1;
s SATISFIABLE
Starting to solve
c stats 0;248;1.88669;-1;2182300;8826341;-1;-1;-1;-1;-1;-1;-1;-1;
s SATISFIABLE
Starting to solve
Starting to solve
c stats 0;480;8.36314;-1;6376930;24703034;-1;-1;-1;-1;-1;-1;-1;-1;
s SATISFIABLE
Starting to solve
c stats 0;482;22.4693;-1;8693031;30759459;-1;-1;-1;-1;-1;-1;-1;-1;
s SATISFIABLE
========================================================================================================================================================================================
                                                                Totalizer + heule
========================================================================================================================================================================================
Starting to solve
c stats 0;117;0.18042;-1;220564;969234;-1;-1;-1;-1;-1;-1;-1;-1;
s SATISFIABLE
Starting to solve
c stats 0;222;2.31829;-1;1772461;6087459;-1;-1;-1;-1;-1;-1;-1;-1;
s SATISFIABLE
Starting to solve
c stats 0;248;2.54207;-1;2181950;8825991;-1;-1;-1;-1;-1;-1;-1;-1;
s SATISFIABLE
Starting to solve
c stats 0;357;1124.07;-1;7105171;24571315;-1;-1;-1;-1;-1;-1;-1;-1;
s SATISFIABLE
Starting to solve
c stats 0;480;33.0627;-1;6376430;24702534;-1;-1;-1;-1;-1;-1;-1;-1;
s SATISFIABLE
Starting to solve
c stats 0;482;23.0529;-1;8692656;30759084;-1;-1;-1;-1;-1;-1;-1;-1;
s SATISFIABLE
